
Gurobi 13.0.2 (win64) logging started Fri Jul 24 11:02:13 2026

Set parameter LogFile to value "E:\codes\ExactEBRP\results\gf_c0_mechanism_transfer_c5_round30\runs\stage3__tight_T_seed3101__c3_replica__300s\external\native_logs\R.0.0.1.0.1.1.0.0.1.0_lp.gurobi.log"
Gurobi Optimizer version 13.0.2 build v13.0.2rc1 (win64 - Windows 10.0 (19045.2))

CPU model: 12th Gen Intel(R) Core(TM) i7-12700KF, instruction set [SSE2|AVX|AVX2]
Thread count: 12 physical cores, 20 logical processors, using up to 1 threads

Non-default parameters:
TimeLimit  5.5258583899999991e+01
MIPGap  0
MIPGapAbs  0
LogToConsole  0
Threads  1

Optimize a model with 11939 rows, 3384 columns and 67420 nonzeros (Min)
Model fingerprint: 0x3420d194
Model has 21 linear objective coefficients
Coefficient statistics:
  Matrix range     [7e-03, 2e+04]
  Objective range  [7e-03, 1e+00]
  Bounds range     [2e-02, 3e+02]
  RHS range        [2e-02, 5e+04]

Presolve removed 1108 rows and 105 columns
Presolve time: 0.03s
Presolved: 10831 rows, 3428 columns, 62318 nonzeros

Iteration    Objective       Primal Inf.    Dual Inf.      Time
       0    1.8643542e-02   3.639622e+02   0.000000e+00      0s

Extra simplex iterations after uncrush: 44
    3397    1.9765440e-02   0.000000e+00   0.000000e+00      0s

Solved in 3397 iterations and 0.24 seconds (0.76 work units)
Optimal objective  1.976544043e-02

User-callback calls 3548, time in user-callback 0.00 sec
